
n_res = 8;
rcap = [25, 25, 21, 22, 669, 655, 656, 726];
rtype = [1, 1, 1, 1, 2, 2, 2, 2];
n_tasks = 50;
modes =  [{1, 2, 3}, {4, 5, 6}, {7, 8, 9}, {10, 11, 12}, {13, 14, 15}, {16, 17, 18}, {19, 20, 21}, {22, 23, 24}, {25, 26, 27}, {28, 29, 30}, {31, 32, 33}, {34, 35, 36}, {37, 38, 39}, {40, 41, 42}, {43, 44, 45}, {46, 47, 48}, {49, 50, 51}, {52, 53, 54}, {55, 56, 57}, {58, 59, 60}, {61, 62, 63}, {64, 65, 66}, {67, 68, 69}, {70, 71, 72}, {73, 74, 75}, {76, 77, 78}, {79, 80, 81}, {82, 83, 84}, {85, 86, 87}, {88, 89, 90}, {91, 92, 93}, {94, 95, 96}, {97, 98, 99}, {100, 101, 102}, {103, 104, 105}, {106, 107, 108}, {109, 110, 111}, {112, 113, 114}, {115, 116, 117}, {118, 119, 120}, {121, 122, 123}, {124, 125, 126}, {127, 128, 129}, {130, 131, 132}, {133, 134, 135}, {136, 137, 138}, {139, 140, 141}, {142, 143, 144}, {145, 146, 147}, {148, 149, 150}];
succ =  [{30, 23, 22, 21, 16, 12, 11, 10}, {26, 24, 23, 22, 21, 19, 17}, {23, 18, 7}, {30, 22, 7}, {32, 27, 26, 23, 20, 18, 12}, {42, 37, 36, 30, 26, 24, 23, 20, 17}, {42, 37, 36, 32, 26, 24, 20, 17}, {36, 26, 22, 18, 17}, {42, 37, 36, 29, 27, 24, 23}, {37, 36, 28, 17}, {37, 36, 34, 32, 31, 29, 28, 26}, {42, 41, 37, 36, 34, 29, 24}, {42, 41, 40, 34, 32, 31, 29, 28}, {33, 32, 29, 22}, {42, 33, 29, 27, 26}, {37, 31, 20}, {40, 33, 31, 29, 27}, {41, 40, 31, 29, 24}, {50, 49, 48, 42, 41, 35, 32, 31}, {48, 41, 39, 34, 28}, {48, 36, 32, 28}, {50, 42, 41, 37, 31}, {50, 49, 40, 35, 31}, {48, 39, 28}, {50, 40, 35, 31}, {49, 47, 44, 43, 40, 39, 38}, {50, 49, 47, 41, 38, 34}, {50, 49, 35, 33}, {49, 39, 35}, {44, 41, 40, 38}, {44, 43, 39, 38}, {45, 44, 43, 39}, {47, 46, 44, 43}, {46, 45, 44, 43}, {47, 44, 38}, {49, 43}, {40}, {45}, {46}, {48}, {43}, {47}, {}, {}, {}, {}, {}, {}, {}, {}];
n_opt = 150;
dur = [14, 21, 22, 10, 12, 30, 11, 20, 29, 11, 18, 29, 2, 12, 16, 3, 6, 16, 4, 6, 16, 9, 14, 15, 7, 9, 16, 6, 7, 27, 17, 19, 25, 6, 12, 17, 12, 25, 29, 16, 20, 25, 2, 3, 15, 10, 12, 28, 15, 19, 28, 11, 20, 21, 4, 6, 15, 18, 22, 26, 8, 16, 30, 3, 14, 15, 3, 21, 29, 11, 18, 24, 3, 11, 22, 6, 10, 28, 1, 16, 26, 27, 28, 29, 2, 14, 30, 19, 20, 22, 10, 29, 30, 11, 19, 26, 3, 24, 27, 15, 16, 24, 4, 15, 18, 22, 25, 27, 16, 26, 30, 1, 10, 14, 1, 14, 25, 9, 23, 30, 3, 12, 21, 8, 19, 29, 20, 24, 27, 3, 13, 25, 2, 3, 25, 18, 20, 23, 8, 20, 25, 6, 15, 27, 6, 16, 17, 3, 7, 15];
rreq = [|2, 1, 1, 5, 4, 4, 4, 3, 1, 5, 3, 2, 3, 3, 3, 5, 5, 5, 4, 2, 2, 4, 4, 3, 5, 3, 3, 4, 4, 4, 2, 2, 2, 4, 4, 4, 3, 1, 1, 3, 3, 3, 3, 3, 3, 2, 1, 1, 2, 1, 1, 5, 3, 2, 4, 4, 4, 3, 2, 2, 4, 2, 2, 5, 3, 2, 5, 3, 3, 2, 2, 2, 4, 2, 2, 1, 1, 1, 4, 2, 2, 5, 4, 4, 2, 1, 1, 5, 5, 5, 4, 4, 4, 4, 2, 1, 4, 2, 2, 5, 3, 3, 4, 4, 4, 3, 3, 2, 3, 3, 2, 4, 3, 2, 5, 3, 1, 5, 3, 3, 2, 2, 1, 4, 3, 1, 4, 3, 2, 2, 1, 1, 4, 4, 4, 5, 4, 3, 4, 2, 2, 1, 1, 1, 5, 4, 3, 5, 3, 3
 |5, 3, 1, 4, 4, 4, 3, 2, 1, 5, 4, 3, 4, 3, 2, 4, 4, 3, 5, 2, 1, 3, 2, 2, 3, 3, 1, 4, 2, 1, 3, 3, 3, 2, 2, 1, 3, 2, 1, 5, 2, 1, 4, 4, 4, 3, 2, 1, 1, 1, 1, 2, 2, 2, 4, 3, 2, 2, 2, 1, 2, 2, 1, 4, 2, 1, 5, 3, 3, 4, 3, 1, 3, 3, 2, 5, 3, 3, 3, 2, 2, 4, 4, 4, 4, 2, 2, 5, 5, 5, 2, 2, 1, 4, 2, 2, 3, 2, 2, 4, 2, 1, 3, 2, 2, 4, 4, 3, 4, 2, 1, 3, 2, 2, 3, 3, 3, 5, 4, 4, 3, 2, 2, 4, 3, 1, 5, 3, 3, 4, 3, 2, 3, 3, 3, 2, 2, 1, 5, 4, 4, 4, 4, 3, 4, 4, 4, 3, 2, 2
 |3, 3, 3, 3, 3, 3, 4, 4, 2, 4, 3, 3, 3, 3, 3, 4, 4, 3, 5, 4, 4, 4, 3, 3, 3, 3, 3, 3, 3, 3, 3, 2, 1, 3, 3, 3, 2, 2, 2, 2, 1, 1, 2, 2, 2, 4, 3, 2, 4, 4, 3, 5, 5, 5, 4, 4, 3, 1, 1, 1, 2, 2, 2, 3, 3, 1, 3, 3, 3, 4, 3, 3, 4, 4, 4, 2, 2, 2, 3, 3, 2, 3, 2, 2, 4, 3, 3, 1, 1, 1, 3, 2, 2, 3, 2, 2, 3, 3, 2, 1, 1, 1, 1, 1, 1, 5, 4, 4, 1, 1, 1, 5, 4, 2, 3, 2, 2, 1, 1, 1, 1, 1, 1, 1, 1, 1, 5, 4, 4, 4, 4, 4, 2, 2, 2, 4, 3, 3, 4, 4, 4, 4, 4, 2, 2, 2, 2, 4, 3, 3
 |4, 3, 3, 4, 4, 4, 3, 1, 1, 3, 2, 1, 4, 3, 1, 2, 2, 2, 1, 1, 1, 4, 2, 2, 3, 2, 2, 2, 2, 2, 2, 1, 1, 2, 1, 1, 5, 4, 2, 3, 3, 2, 3, 1, 1, 3, 3, 3, 5, 4, 4, 1, 1, 1, 3, 3, 2, 4, 3, 3, 5, 3, 1, 5, 5, 5, 1, 1, 1, 5, 4, 4, 2, 1, 1, 1, 1, 1, 5, 4, 4, 5, 4, 3, 1, 1, 1, 4, 3, 3, 2, 1, 1, 2, 1, 1, 4, 3, 2, 2, 2, 2, 3, 2, 2, 2, 2, 2, 4, 3, 1, 4, 3, 3, 5, 3, 2, 4, 2, 1, 4, 3, 3, 5, 4, 4, 2, 1, 1, 3, 3, 1, 5, 5, 5, 5, 3, 1, 1, 1, 1, 3, 2, 2, 5, 5, 5, 3, 3, 2
 |24, 23, 22, 21, 13, 4, 10, 7, 6, 21, 20, 7, 15, 15, 4, 20, 14, 3, 18, 12, 11, 26, 25, 22, 23, 22, 22, 28, 26, 26, 14, 13, 11, 22, 15, 7, 13, 11, 7, 12, 12, 12, 22, 20, 12, 18, 12, 9, 19, 16, 13, 9, 6, 4, 19, 19, 19, 10, 9, 7, 15, 9, 5, 14, 14, 9, 17, 13, 7, 13, 12, 11, 29, 28, 27, 12, 11, 9, 19, 19, 19, 27, 23, 20, 15, 10, 8, 20, 20, 18, 26, 19, 2, 25, 23, 22, 15, 13, 11, 25, 23, 22, 28, 25, 24, 16, 13, 11, 25, 17, 8, 12, 11, 11, 13, 13, 13, 12, 8, 2, 8, 6, 5, 27, 24, 18, 26, 23, 23, 3, 2, 2, 8, 4, 4, 6, 5, 5, 25, 19, 14, 21, 14, 12, 27, 15, 12, 22, 12, 5
 |9, 9, 7, 27, 21, 16, 3, 3, 3, 9, 9, 8, 21, 17, 8, 5, 4, 1, 9, 7, 5, 27, 20, 15, 21, 18, 14, 4, 3, 1, 24, 19, 15, 19, 13, 8, 22, 20, 7, 25, 22, 19, 20, 18, 17, 25, 22, 21, 20, 14, 11, 11, 5, 2, 20, 15, 12, 18, 9, 2, 9, 7, 5, 27, 26, 26, 23, 16, 13, 18, 17, 16, 18, 14, 14, 13, 13, 10, 21, 19, 15, 28, 15, 6, 25, 20, 15, 22, 13, 6, 16, 9, 8, 20, 14, 13, 17, 12, 3, 16, 14, 9, 24, 20, 9, 29, 24, 23, 20, 20, 20, 6, 5, 4, 9, 6, 6, 22, 14, 7, 21, 17, 15, 24, 18, 12, 23, 17, 15, 12, 8, 7, 27, 19, 18, 14, 7, 6, 26, 22, 20, 25, 23, 13, 25, 25, 25, 15, 11, 11
 |14, 14, 10, 12, 11, 4, 13, 10, 8, 15, 11, 9, 22, 16, 11, 19, 17, 12, 19, 17, 17, 20, 16, 12, 24, 23, 17, 28, 22, 11, 21, 20, 19, 25, 24, 22, 21, 18, 9, 20, 14, 9, 28, 25, 24, 6, 6, 5, 23, 10, 4, 26, 26, 25, 22, 19, 14, 5, 5, 3, 13, 10, 2, 28, 17, 7, 20, 18, 15, 20, 17, 17, 7, 6, 1, 3, 3, 1, 24, 20, 20, 12, 11, 11, 22, 20, 14, 8, 6, 6, 11, 11, 11, 7, 7, 5, 20, 15, 13, 24, 24, 24, 19, 15, 11, 10, 4, 1, 26, 20, 7, 12, 8, 5, 15, 15, 14, 18, 16, 12, 19, 17, 14, 4, 4, 2, 24, 23, 19, 28, 26, 23, 21, 14, 7, 24, 22, 22, 22, 19, 13, 23, 20, 20, 20, 15, 6, 12, 12, 8
 |13, 7, 5, 17, 14, 11, 26, 20, 8, 25, 21, 20, 10, 5, 3, 21, 17, 17, 18, 14, 13, 5, 3, 2, 14, 10, 9, 21, 14, 9, 26, 23, 21, 11, 11, 8, 16, 10, 8, 22, 21, 17, 24, 21, 18, 29, 27, 24, 26, 24, 22, 30, 28, 28, 27, 24, 21, 2, 2, 2, 19, 16, 13, 30, 23, 16, 26, 18, 12, 18, 10, 8, 23, 19, 18, 26, 21, 14, 9, 7, 4, 17, 16, 14, 29, 27, 24, 21, 18, 17, 15, 14, 9, 13, 11, 8, 22, 18, 17, 19, 11, 9, 20, 9, 2, 21, 21, 19, 18, 17, 10, 12, 11, 9, 10, 7, 4, 22, 15, 11, 16, 12, 10, 29, 27, 27, 23, 14, 13, 18, 16, 11, 14, 14, 14, 22, 19, 13, 17, 11, 4, 16, 15, 12, 22, 19, 16, 21, 21, 21|];